29
27
24
28
26
25
15
23
28
23
27
24
26
21
25
0
17
21
22
11
1
18
20
14
22
18
5
20
24
5
23
15
17
19
12
16
22
14
21
15
7
4
17
19
9
20
19
17
16
18
11
17
6
3
10
16
15
15
8
13
14
7
14
10
9
13
11
9
13
12
8
12
5
6
11
10
6
8
5
9
1
7
8
4
7
6
4
3
2
2
5
4
1
3
2
2
0
0
1
1
0